(set-info :status unknown)
(declare-fun %A () (_ BitVec 61))
(declare-fun %B () (_ BitVec 61))
(declare-fun u_%Y () (_ BitVec 8))
(declare-fun |ana_isPowerOf2(%A)| () (_ BitVec 1))
(declare-fun %X () (_ BitVec 61))
(assert
 (let (($x6869 (= |ana_isPowerOf2(%A)| (_ bv1 1))))
 (let (($x12291 (bvult %B (_ bv61 61))))
 (let (($x22142 (=> $x6869 (and (and (distinct %A (_ bv0 61)) true) (= (bvand %A (bvsub %A (_ bv1 61))) (_ bv0 61))))))
 (let (($x20017 (or (and (distinct %X (_ bv1152921504606846976 61)) true) (and (distinct (bvshl %A %B) (_ bv2305843009213693951 61)) true))))
 (let ((?x21412 (bvshl %A %B)))
 (let (($x4049 (and (distinct ?x21412 (_ bv0 61)) true)))
 (and $x12291 $x4049 $x20017 $x22142 $x12291 $x6869 (= u_%Y (_ bv1 8)) (not (= (bvlshr ?x21412 %B) %A))))))))))
(check-sat)
